NAME: tsp45_19
COMMENT: 45-tsp problem (Padberg/Rinaldi)
TYPE: TSP
DIMENSION: 45
EDGE_WEIGHT_TYPE : EUC_2D
NODE_COORD_SECTION
1 15 20
2 6 13
3 22 13
4 19 9
5 24 35
6 6 4
7 30 27
8 10 3
9 12 1
10 17 24
11 8 40
12 36 26
13 35 39
14 19 25
15 21 25
16 32 11
17 20 20
18 4 32
19 9 18
20 30 23
21 2 9
22 16 5
23 34 10
24 36 25
25 21 35
26 30 25
27 22 34
28 11 22
29 7 10
30 12 8
31 36 3
32 15 33
33 24 3
34 27 9
35 14 4
36 19 30
37 38 25
38 26 24
39 29 7
40 34 22
41 27 7
42 34 27
43 4 32
44 3 29
45 26 11
